Maximize
  NxS_e0 + NxS_e1 + NxS_e3 + NxS_e4 + NxS_e5 + NxS_e8 + NxS_e11 + NxS_e13 + NxS_e14 + NxS_e15
Subject to
  -S_BB_1 + S_e_0 = 0
  -S_BB_1 = 0
  -S_BB_2 + S_e_1 = 0
  -S_BB_2 + S_e_0 + S_e_14 = 0
  -S_BB_3 + S_e_3 = 0
  -S_BB_3 + S_e_1 = 0
  -S_BB_4 + S_e_4 = 0
  -S_BB_4 + S_e_3 = 0
  -S_BB_5 + S_e_5 = 0
  -S_BB_5 + S_e_4 = 0
  -S_BB_6 + S_e_8 = 0
  -S_BB_6 + S_e_5 = 0
  -S_BB_7 = 0
  -S_BB_7 = 0
  -S_BB_8 + S_e_11 = 0
  -S_BB_8 + S_e_8 = 0
  -S_BB_9 + S_e_13 = 0
  -S_BB_9 + S_e_11 = 0
  -S_BB_10 + S_e_14 + S_e_15 = 0
  -S_BB_10 + S_e_13 = 0
  -S_BB_11 = 0
  -S_BB_11 + S_e_15 = 0
  NxS_e0 - N <= 0
  -6 S_e_0 + NxS_e0 <= 0
  -6 S_e_0 + NxS_e0 - N >= -6
  -5 S_e_0 - N >= -6
  NxS_e1 - N <= 0
  -6 S_e_1 + NxS_e1 <= 0
  -6 S_e_1 + NxS_e1 - N >= -6
  -N >= -6
  NxS_e3 - N <= 0
  -6 S_e_3 + NxS_e3 <= 0
  -6 S_e_3 + NxS_e3 - N >= -6
  -N >= -6
  NxS_e4 - N <= 0
  -6 S_e_4 + NxS_e4 <= 0
  -6 S_e_4 + NxS_e4 - N >= -6
  -N >= -6
  NxS_e5 - N <= 0
  -6 S_e_5 + NxS_e5 <= 0
  -6 S_e_5 + NxS_e5 - N >= -6
  -N >= -6
  NxS_e8 - N <= 0
  -6 S_e_8 + NxS_e8 <= 0
  -6 S_e_8 + NxS_e8 - N >= -6
  -N >= -6
  NxS_e11 - N <= 0
  -6 S_e_11 + NxS_e11 <= 0
  -6 S_e_11 + NxS_e11 - N >= -6
  -N >= -6
  NxS_e13 - N <= 0
  -6 S_e_13 + NxS_e13 <= 0
  -6 S_e_13 + NxS_e13 - N >= -6
  -N >= -6
  NxS_e14 - N <= 0
  -6 S_e_14 + NxS_e14 <= 0
  -6 S_e_14 + NxS_e14 - N >= -6
  -S_e_14 - N >= -6
  NxS_e15 - N <= 0
  -6 S_e_15 + NxS_e15 <= 0
  -6 S_e_15 + NxS_e15 - N >= -6
  -5 S_e_15 - N >= -6
  S_e_14 = 1
Bounds
  0 <= NxS_e0 <= 1
  0 <= NxS_e1 <= 6
  0 <= NxS_e3 <= 6
  0 <= NxS_e4 <= 6
  0 <= NxS_e5 <= 6
  0 <= NxS_e8 <= 6
  0 <= NxS_e11 <= 6
  0 <= NxS_e13 <= 6
  0 <= NxS_e14 <= 5
  0 <= NxS_e15 <= 1
  0 <= N <= 6
General
  N
Binary
  S_BB_1 S_BB_2 S_BB_3 S_BB_4 S_BB_5 S_BB_6 S_BB_7 S_BB_8 S_BB_9 S_BB_10 S_BB_11 S_e_0 S_e_1 S_e_3 S_e_4 S_e_5 S_e_8 S_e_11 S_e_13 S_e_14 S_e_15
End
